c Sudoku solution
p cnf 729 0
161 0
183 0
257 0
299 0
313 0
378 0
391 0
419 0
497 0
537 0
571 0
588 0
622 0
646 0
667 0
654 0
732 0
795 0
693 0
842 0
889 0
679 0
685 0
911 0
851 0
781 0
618 0
631 0
221 0
441 0
925 0
865 0
933 0
729 0
873 0
956 0
987 0
747 0
177 0
275 0
327 0
817 0
263 0
366 0
543 0
423 0
753 0
768 0
998 0
972 0
964 0
949 0
462 0
569 0
458 0
555 0
592 0
435 0
115 0
212 0
345 0
382 0
152 0
359 0
139 0
334 0
128 0
236 0
196 0
284 0
144 0
248 0
838 0
486 0
474 0
776 0
894 0
714 0
826 0
516 0
524 0
